************************************************************************
file with basedata            : mb3_.bas
initial value random generator: 1880398242
************************************************************************
projects                      :  1
jobs (incl. supersource/sink ):  12
horizon                       :  82
RESOURCES
  - renewable                 :  2   R
  - nonrenewable              :  2   N
  - doubly constrained        :  0   D
************************************************************************
PROJECT INFORMATION:
pronr.  #jobs rel.date duedate tardcost  MPM-Time
    1     10      0       15        5       15
************************************************************************
PRECEDENCE RELATIONS:
jobnr.    #modes  #successors   successors
   0        1          3           1   2   3
   1        3          3           4   7   8
   2        3          1          10
   3        3          2           8   9
   4        3          2           5  10
   5        3          1           6
   6        3          1           9
   7        3          2           9  10
   8        3          1          11
   9        3          1          11
  10        3          1          11
  11        1          0        
************************************************************************
REQUESTS/DURATIONS:
jobnr. mode duration  R 1  R 2  R 3  R 4  E(W 1)  E(W 2)
------------------------------------------------------------------------
  0      1     0       0    0    0    0     0       0
  1      1     2       5    0    8   10    10      36
  2      1     9       9    0    7    7    81      126
  3      1     4       0    1    9    9     8      72
  4      1     5       0    8    4    9    40      65
  5      1     1       0   10    8    5    10      13
  6      1     2       0    4    7    6     8      26
  7      1     2       8    0    3   10    16      26
  8      1     1      10    0    7    7    10      14
  9      1     2       1    0    6    8     4      28
 10      1     6       9    0    9    8    54      102
 11      1     0       0    0    0    0     0       0
************************************************************************
RESOURCEAVAILABILITIES:
  R 1  R 2
   18   151
************************************************************************
RESOURCE LIMITS:
jobnr.  l(R 1)  u(R 1)  l(R 2)  u(R 2)
------------------------------------------------------------------------
  0        0       0       0       0
  1        3       5       9      18
  2        5       9       8      14
  3        1       2      10      18
  4        4       8       7      13
  5        5      10       7      13
  6        2       4       7      13
  7        4       8       7      13
  8        5      10       8      14
  9        1       2       7      14
 10        5       9       9      17
 11        0       0       0       0
************************************************************************
SCENARIOS:
------------------------------------------------------------------------
RESOURCE k = 1
s = 1: (0, 8, 111, 10, 41, 8, 6, 22, 13, 6, 38, 0)
s = 2: (0, 8, 53, 7, 32, 12, 11, 26, 12, 6, 51, 0)
s = 3: (0, 7, 105, 11, 56, 14, 5, 11, 12, 3, 53, 0)
s = 4: (0, 9, 84, 8, 26, 11, 9, 23, 13, 4, 45, 0)
s = 5: (0, 6, 51, 8, 44, 12, 5, 18, 7, 6, 39, 0)
s = 6: (0, 12, 91, 5, 39, 12, 8, 18, 11, 4, 81, 0)
s = 7: (0, 8, 108, 5, 49, 7, 12, 21, 13, 5, 44, 0)
s = 8: (0, 8, 70, 5, 36, 11, 7, 21, 9, 4, 35, 0)
s = 9: (0, 10, 70, 6, 41, 6, 10, 13, 7, 3, 39, 0)
s = 10: (0, 12, 58, 8, 48, 13, 6, 16, 8, 4, 35, 0)
s = 11: (0, 7, 97, 12, 46, 7, 9, 12, 7, 4, 31, 0)
s = 12: (0, 17, 88, 7, 46, 14, 8, 16, 9, 5, 47, 0)
s = 13: (0, 11, 112, 7, 23, 10, 9, 22, 9, 5, 58, 0)
s = 14: (0, 7, 71, 11, 41, 6, 6, 14, 7, 5, 61, 0)
s = 15: (0, 11, 87, 9, 59, 8, 9, 14, 12, 4, 62, 0)
s = 16: (0, 10, 104, 14, 44, 8, 8, 17, 8, 6, 52, 0)
s = 17: (0, 10, 58, 5, 34, 6, 6, 15, 7, 4, 42, 0)
s = 18: (0, 14, 57, 12, 62, 14, 9, 15, 8, 3, 71, 0)
s = 19: (0, 13, 94, 6, 40, 8, 7, 11, 13, 4, 49, 0)
s = 20: (0, 9, 64, 8, 41, 7, 11, 16, 9, 3, 42, 0)
s = 21: (0, 12, 76, 10, 24, 7, 6, 15, 10, 5, 43, 0)
s = 22: (0, 9, 68, 8, 54, 14, 6, 20, 9, 3, 47, 0)
s = 23: (0, 11, 96, 7, 32, 14, 7, 13, 8, 5, 62, 0)
s = 24: (0, 14, 90, 12, 46, 8, 9, 16, 6, 4, 52, 0)
s = 25: (0, 12, 58, 8, 40, 7, 8, 10, 9, 6, 75, 0)
s = 26: (0, 15, 88, 6, 57, 7, 12, 20, 9, 4, 67, 0)
s = 27: (0, 7, 69, 6, 47, 12, 10, 20, 9, 4, 61, 0)
s = 28: (0, 10, 78, 9, 67, 7, 7, 17, 10, 5, 58, 0)
s = 29: (0, 6, 66, 11, 54, 8, 5, 28, 8, 6, 38, 0)
s = 30: (0, 12, 76, 10, 26, 9, 7, 17, 10, 5, 87, 0)
s = 31: (0, 15, 108, 9, 31, 13, 8, 23, 8, 4, 57, 0)
s = 32: (0, 11, 88, 8, 61, 13, 10, 10, 10, 4, 72, 0)
s = 33: (0, 13, 94, 10, 52, 7, 10, 14, 10, 3, 43, 0)
s = 34: (0, 13, 108, 7, 41, 14, 6, 14, 8, 5, 44, 0)
s = 35: (0, 8, 46, 11, 42, 7, 9, 15, 9, 6, 71, 0)
s = 36: (0, 12, 72, 11, 36, 7, 5, 16, 11, 5, 44, 0)
s = 37: (0, 8, 93, 9, 39, 10, 8, 14, 10, 5, 69, 0)
s = 38: (0, 7, 69, 7, 30, 9, 7, 13, 12, 4, 86, 0)
s = 39: (0, 9, 95, 12, 44, 13, 7, 19, 17, 6, 86, 0)
s = 40: (0, 9, 70, 12, 52, 11, 7, 21, 6, 7, 61, 0)
s = 41: (0, 11, 72, 8, 29, 12, 15, 17, 6, 3, 53, 0)
s = 42: (0, 8, 84, 7, 45, 7, 5, 22, 8, 4, 49, 0)
s = 43: (0, 10, 122, 10, 38, 19, 9, 14, 13, 3, 60, 0)
s = 44: (0, 13, 71, 8, 24, 11, 10, 17, 8, 5, 78, 0)
s = 45: (0, 12, 78, 6, 38, 17, 10, 15, 6, 4, 59, 0)
s = 46: (0, 8, 80, 6, 51, 16, 6, 20, 9, 5, 57, 0)
s = 47: (0, 10, 117, 5, 55, 8, 8, 22, 10, 7, 35, 0)
s = 48: (0, 9, 69, 11, 53, 9, 8, 22, 13, 5, 40, 0)
s = 49: (0, 10, 94, 8, 35, 8, 8, 22, 7, 5, 55, 0)
s = 50: (0, 17, 94, 10, 44, 11, 7, 19, 11, 4, 88, 0)
s = 51: (0, 8, 62, 11, 54, 10, 6, 20, 8, 4, 86, 0)
s = 52: (0, 12, 73, 7, 51, 16, 6, 17, 11, 5, 40, 0)
s = 53: (0, 11, 66, 7, 41, 10, 11, 17, 6, 4, 41, 0)
s = 54: (0, 11, 60, 10, 27, 9, 10, 12, 17, 5, 53, 0)
s = 55: (0, 11, 77, 6, 46, 12, 5, 27, 8, 3, 82, 0)
s = 56: (0, 10, 102, 6, 49, 11, 8, 21, 11, 3, 55, 0)
s = 57: (0, 7, 47, 7, 34, 8, 13, 10, 18, 5, 47, 0)
s = 58: (0, 9, 79, 5, 28, 14, 13, 23, 11, 3, 58, 0)
s = 59: (0, 7, 46, 8, 23, 10, 7, 9, 16, 4, 31, 0)
s = 60: (0, 13, 95, 7, 28, 9, 9, 11, 10, 7, 55, 0)
s = 61: (0, 12, 72, 7, 32, 14, 13, 27, 15, 4, 85, 0)
s = 62: (0, 10, 74, 14, 59, 19, 7, 12, 9, 3, 51, 0)
s = 63: (0, 10, 56, 13, 30, 10, 11, 24, 9, 3, 76, 0)
s = 64: (0, 8, 85, 7, 61, 13, 6, 18, 7, 5, 63, 0)
s = 65: (0, 7, 103, 10, 30, 13, 10, 24, 7, 4, 64, 0)
s = 66: (0, 9, 86, 8, 46, 10, 16, 9, 6, 5, 37, 0)
s = 67: (0, 8, 81, 11, 40, 8, 10, 12, 8, 5, 53, 0)
s = 68: (0, 10, 81, 11, 52, 12, 9, 18, 12, 6, 59, 0)
s = 69: (0, 17, 70, 9, 54, 9, 8, 10, 12, 5, 60, 0)
s = 70: (0, 7, 65, 9, 50, 6, 5, 9, 9, 4, 52, 0)
s = 71: (0, 9, 74, 10, 24, 8, 6, 12, 7, 5, 49, 0)
s = 72: (0, 12, 78, 11, 37, 14, 9, 17, 8, 3, 49, 0)
s = 73: (0, 6, 56, 5, 50, 14, 6, 11, 7, 5, 64, 0)
s = 74: (0, 13, 64, 9, 55, 14, 6, 18, 10, 5, 54, 0)
s = 75: (0, 8, 64, 8, 65, 6, 7, 15, 16, 5, 54, 0)
s = 76: (0, 7, 56, 7, 30, 14, 13, 22, 9, 5, 63, 0)
s = 77: (0, 12, 50, 9, 40, 13, 10, 22, 15, 4, 57, 0)
s = 78: (0, 9, 53, 11, 56, 9, 9, 19, 17, 4, 65, 0)
s = 79: (0, 8, 107, 6, 49, 12, 6, 22, 10, 4, 96, 0)
s = 80: (0, 10, 69, 6, 39, 9, 9, 14, 10, 6, 62, 0)
s = 81: (0, 9, 62, 10, 48, 12, 6, 14, 14, 5, 61, 0)
s = 82: (0, 15, 55, 8, 25, 12, 8, 25, 9, 3, 37, 0)
s = 83: (0, 8, 64, 13, 35, 6, 10, 15, 8, 5, 53, 0)
s = 84: (0, 11, 98, 5, 69, 13, 8, 13, 8, 5, 49, 0)
s = 85: (0, 14, 69, 9, 32, 7, 9, 20, 13, 6, 50, 0)
s = 86: (0, 8, 73, 15, 43, 10, 10, 20, 8, 6, 36, 0)
s = 87: (0, 15, 84, 7, 25, 6, 8, 24, 11, 5, 76, 0)
s = 88: (0, 14, 52, 8, 51, 9, 7, 12, 7, 3, 57, 0)
s = 89: (0, 8, 79, 9, 44, 16, 7, 10, 10, 5, 42, 0)
s = 90: (0, 16, 117, 9, 46, 14, 6, 12, 7, 5, 40, 0)
s = 91: (0, 8, 96, 5, 40, 14, 10, 26, 7, 5, 50, 0)
s = 92: (0, 9, 107, 10, 37, 6, 10, 16, 12, 3, 52, 0)
s = 93: (0, 12, 84, 13, 23, 8, 7, 18, 19, 5, 34, 0)
s = 94: (0, 9, 103, 5, 60, 12, 12, 15, 11, 3, 37, 0)
s = 95: (0, 11, 102, 6, 34, 8, 9, 10, 8, 6, 53, 0)
s = 96: (0, 9, 97, 7, 42, 17, 11, 17, 9, 4, 85, 0)
s = 97: (0, 10, 90, 6, 54, 7, 6, 11, 9, 4, 41, 0)
s = 98: (0, 8, 83, 9, 42, 7, 8, 25, 9, 3, 44, 0)
s = 99: (0, 10, 109, 9, 32, 11, 9, 16, 9, 6, 42, 0)
s = 100: (0, 12, 60, 5, 55, 13, 7, 13, 9, 7, 36, 0)
s = 101: (0, 8, 107, 9, 42, 13, 10, 16, 7, 4, 59, 0)
s = 102: (0, 9, 81, 7, 30, 13, 5, 16, 12, 4, 46, 0)
s = 103: (0, 8, 70, 11, 39, 8, 8, 12, 13, 4, 42, 0)
s = 104: (0, 8, 60, 12, 53, 9, 6, 17, 13, 5, 40, 0)
s = 105: (0, 11, 84, 7, 42, 15, 12, 12, 9, 4, 59, 0)
s = 106: (0, 8, 84, 11, 63, 9, 8, 11, 7, 3, 58, 0)
s = 107: (0, 8, 57, 8, 39, 11, 9, 11, 11, 4, 56, 0)
s = 108: (0, 6, 55, 9, 54, 9, 10, 14, 9, 4, 39, 0)
s = 109: (0, 13, 71, 7, 55, 11, 9, 20, 10, 3, 37, 0)
s = 110: (0, 11, 66, 8, 47, 10, 10, 13, 10, 6, 44, 0)
s = 111: (0, 19, 68, 6, 31, 10, 9, 16, 11, 4, 58, 0)
s = 112: (0, 11, 107, 5, 33, 8, 12, 13, 9, 3, 73, 0)
s = 113: (0, 8, 80, 10, 43, 10, 9, 9, 13, 4, 56, 0)
s = 114: (0, 10, 94, 12, 32, 9, 9, 13, 11, 3, 78, 0)
s = 115: (0, 11, 86, 8, 38, 10, 10, 16, 10, 5, 56, 0)
s = 116: (0, 12, 48, 9, 24, 11, 9, 13, 10, 5, 40, 0)
s = 117: (0, 15, 67, 8, 36, 9, 14, 25, 10, 3, 59, 0)
s = 118: (0, 7, 141, 7, 33, 11, 6, 13, 9, 4, 51, 0)
s = 119: (0, 9, 77, 11, 31, 14, 6, 13, 6, 3, 57, 0)
s = 120: (0, 7, 63, 7, 35, 6, 10, 17, 8, 7, 45, 0)
s = 121: (0, 12, 78, 9, 53, 13, 9, 16, 8, 5, 33, 0)
s = 122: (0, 12, 126, 8, 32, 10, 6, 13, 10, 5, 55, 0)
s = 123: (0, 8, 72, 7, 41, 11, 6, 11, 7, 4, 82, 0)
s = 124: (0, 9, 62, 10, 32, 13, 8, 13, 7, 4, 47, 0)
s = 125: (0, 17, 131, 6, 63, 10, 6, 10, 10, 4, 45, 0)
s = 126: (0, 12, 82, 8, 44, 7, 8, 18, 11, 5, 39, 0)
s = 127: (0, 10, 45, 11, 27, 16, 6, 22, 12, 5, 63, 0)
s = 128: (0, 11, 52, 10, 32, 9, 7, 12, 7, 3, 45, 0)
s = 129: (0, 7, 73, 8, 34, 13, 9, 13, 10, 5, 39, 0)
s = 130: (0, 8, 82, 5, 38, 8, 8, 19, 12, 6, 37, 0)
s = 131: (0, 11, 51, 7, 42, 9, 6, 22, 10, 3, 52, 0)
s = 132: (0, 12, 74, 12, 34, 8, 9, 16, 16, 7, 58, 0)
s = 133: (0, 7, 64, 6, 31, 10, 10, 23, 12, 3, 42, 0)
s = 134: (0, 12, 51, 7, 42, 13, 9, 12, 9, 4, 46, 0)
s = 135: (0, 11, 62, 8, 32, 11, 9, 17, 10, 5, 49, 0)
s = 136: (0, 16, 72, 5, 37, 9, 13, 21, 6, 6, 84, 0)
s = 137: (0, 13, 76, 8, 49, 12, 7, 20, 10, 6, 71, 0)
s = 138: (0, 11, 55, 8, 41, 10, 8, 26, 9, 4, 42, 0)
s = 139: (0, 6, 89, 14, 59, 11, 7, 21, 8, 5, 64, 0)
s = 140: (0, 10, 112, 8, 65, 6, 11, 15, 18, 5, 61, 0)
s = 141: (0, 12, 116, 8, 49, 7, 12, 13, 14, 4, 51, 0)
s = 142: (0, 11, 105, 6, 35, 11, 8, 17, 7, 5, 44, 0)
s = 143: (0, 9, 121, 7, 61, 10, 10, 17, 7, 6, 88, 0)
s = 144: (0, 9, 55, 8, 48, 7, 13, 20, 13, 5, 39, 0)
s = 145: (0, 10, 71, 8, 30, 13, 11, 18, 10, 6, 63, 0)
s = 146: (0, 17, 74, 10, 35, 11, 7, 12, 11, 6, 42, 0)
s = 147: (0, 11, 110, 9, 53, 7, 8, 18, 14, 5, 54, 0)
s = 148: (0, 8, 91, 12, 64, 11, 10, 11, 11, 4, 66, 0)
s = 149: (0, 11, 67, 6, 51, 10, 9, 12, 11, 4, 83, 0)
s = 150: (0, 6, 97, 9, 31, 8, 9, 13, 12, 4, 40, 0)
s = 151: (0, 8, 74, 11, 35, 7, 8, 14, 8, 3, 40, 0)
s = 152: (0, 14, 85, 8, 25, 20, 10, 13, 7, 5, 41, 0)
s = 153: (0, 6, 84, 10, 64, 12, 13, 11, 9, 4, 53, 0)
s = 154: (0, 16, 60, 7, 50, 16, 10, 13, 7, 3, 75, 0)
s = 155: (0, 12, 48, 6, 37, 11, 6, 16, 11, 3, 66, 0)
s = 156: (0, 7, 114, 11, 39, 7, 12, 23, 8, 4, 56, 0)
s = 157: (0, 14, 72, 9, 41, 9, 9, 21, 12, 5, 42, 0)
s = 158: (0, 8, 91, 14, 24, 10, 8, 13, 11, 4, 106, 0)
s = 159: (0, 12, 78, 7, 50, 13, 9, 13, 8, 4, 79, 0)
s = 160: (0, 9, 88, 7, 61, 14, 12, 20, 8, 5, 51, 0)
s = 161: (0, 11, 113, 8, 31, 11, 8, 21, 9, 5, 56, 0)
s = 162: (0, 14, 61, 12, 28, 15, 7, 15, 9, 4, 57, 0)
s = 163: (0, 7, 62, 8, 32, 7, 8, 12, 10, 3, 37, 0)
s = 164: (0, 13, 54, 8, 46, 12, 9, 13, 11, 5, 32, 0)
s = 165: (0, 10, 115, 8, 40, 13, 8, 17, 9, 6, 69, 0)
s = 166: (0, 9, 68, 10, 28, 10, 7, 27, 11, 3, 39, 0)
s = 167: (0, 11, 54, 13, 53, 7, 11, 11, 12, 6, 53, 0)
s = 168: (0, 6, 133, 8, 35, 11, 9, 18, 14, 7, 49, 0)
s = 169: (0, 7, 65, 10, 31, 13, 9, 17, 10, 4, 38, 0)
s = 170: (0, 13, 100, 9, 53, 17, 10, 13, 10, 4, 46, 0)
s = 171: (0, 14, 75, 13, 39, 9, 9, 14, 10, 4, 36, 0)
s = 172: (0, 9, 99, 15, 36, 9, 12, 22, 11, 6, 40, 0)
s = 173: (0, 11, 105, 6, 29, 8, 10, 19, 14, 5, 68, 0)
s = 174: (0, 6, 109, 10, 24, 14, 7, 16, 14, 3, 77, 0)
s = 175: (0, 9, 125, 8, 47, 10, 11, 12, 10, 5, 43, 0)
s = 176: (0, 9, 111, 5, 29, 8, 9, 16, 7, 3, 35, 0)
s = 177: (0, 8, 100, 9, 24, 13, 6, 10, 11, 3, 53, 0)
s = 178: (0, 8, 99, 8, 28, 8, 8, 16, 13, 4, 52, 0)
s = 179: (0, 13, 89, 5, 34, 10, 8, 12, 10, 4, 74, 0)
s = 180: (0, 11, 54, 8, 30, 7, 7, 15, 11, 7, 46, 0)
s = 181: (0, 14, 75, 7, 47, 10, 9, 15, 18, 4, 59, 0)
s = 182: (0, 15, 70, 6, 36, 10, 9, 10, 10, 6, 73, 0)
s = 183: (0, 8, 53, 9, 42, 8, 7, 12, 10, 6, 46, 0)
s = 184: (0, 9, 50, 9, 49, 8, 9, 17, 9, 4, 38, 0)
s = 185: (0, 9, 63, 10, 24, 14, 7, 13, 6, 4, 91, 0)
s = 186: (0, 11, 86, 8, 34, 11, 5, 14, 12, 5, 97, 0)
s = 187: (0, 10, 52, 11, 43, 7, 11, 22, 12, 3, 51, 0)
s = 188: (0, 12, 103, 8, 27, 13, 8, 13, 13, 3, 43, 0)
s = 189: (0, 8, 79, 7, 32, 11, 7, 11, 6, 4, 71, 0)
s = 190: (0, 7, 56, 8, 49, 9, 8, 17, 12, 7, 91, 0)
s = 191: (0, 8, 77, 12, 24, 17, 6, 9, 9, 4, 78, 0)
s = 192: (0, 8, 48, 7, 37, 16, 5, 15, 9, 3, 61, 0)
s = 193: (0, 12, 79, 5, 36, 14, 11, 15, 7, 3, 104, 0)
s = 194: (0, 9, 111, 12, 34, 13, 5, 15, 6, 3, 58, 0)
s = 195: (0, 8, 114, 12, 27, 12, 9, 17, 7, 5, 48, 0)
s = 196: (0, 12, 72, 8, 47, 10, 9, 15, 12, 5, 72, 0)
s = 197: (0, 8, 44, 9, 43, 14, 5, 27, 13, 6, 39, 0)
s = 198: (0, 8, 57, 10, 33, 8, 14, 25, 9, 5, 43, 0)
s = 199: (0, 6, 93, 8, 34, 8, 6, 20, 10, 6, 39, 0)
s = 200: (0, 10, 110, 7, 26, 7, 6, 12, 11, 3, 61, 0)
------------------------------------------------------------------------
RESOURCE k = 2
s = 1: (0, 26, 173, 89, 66, 11, 20, 35, 18, 39, 72, 0)
s = 2: (0, 27, 83, 63, 52, 15, 34, 41, 17, 36, 96, 0)
s = 3: (0, 24, 163, 93, 90, 18, 15, 17, 17, 21, 100, 0)
s = 4: (0, 31, 131, 67, 42, 14, 29, 36, 18, 25, 84, 0)
s = 5: (0, 22, 80, 68, 71, 16, 17, 29, 10, 37, 73, 0)
s = 6: (0, 42, 141, 42, 64, 15, 24, 29, 15, 28, 153, 0)
s = 7: (0, 26, 168, 41, 79, 10, 37, 34, 17, 33, 82, 0)
s = 8: (0, 26, 109, 43, 58, 14, 23, 34, 13, 28, 66, 0)
s = 9: (0, 34, 109, 46, 66, 8, 31, 21, 10, 21, 73, 0)
s = 10: (0, 41, 89, 64, 78, 17, 19, 26, 11, 22, 66, 0)
s = 11: (0, 24, 151, 100, 74, 9, 27, 20, 10, 26, 58, 0)
s = 12: (0, 60, 136, 63, 74, 18, 26, 25, 13, 33, 87, 0)
s = 13: (0, 37, 174, 57, 38, 13, 28, 36, 12, 35, 109, 0)
s = 14: (0, 25, 110, 98, 66, 8, 19, 23, 10, 32, 115, 0)
s = 15: (0, 39, 135, 74, 95, 11, 27, 23, 17, 28, 117, 0)
s = 16: (0, 33, 161, 121, 71, 10, 25, 28, 11, 41, 99, 0)
s = 17: (0, 34, 90, 43, 56, 8, 19, 24, 10, 26, 79, 0)
s = 18: (0, 49, 89, 106, 100, 18, 29, 25, 11, 20, 134, 0)
s = 19: (0, 45, 146, 47, 65, 10, 23, 18, 19, 26, 93, 0)
s = 20: (0, 29, 99, 65, 67, 9, 35, 26, 13, 18, 78, 0)
s = 21: (0, 42, 117, 89, 38, 9, 18, 24, 14, 33, 81, 0)
s = 22: (0, 31, 105, 69, 87, 18, 18, 32, 12, 19, 89, 0)
s = 23: (0, 38, 150, 60, 52, 18, 22, 20, 11, 30, 116, 0)
s = 24: (0, 50, 139, 106, 74, 10, 27, 25, 8, 26, 98, 0)
s = 25: (0, 42, 90, 71, 64, 9, 24, 15, 13, 41, 141, 0)
s = 26: (0, 52, 136, 52, 92, 9, 38, 32, 12, 22, 127, 0)
s = 27: (0, 23, 107, 51, 75, 16, 32, 32, 13, 25, 115, 0)
s = 28: (0, 33, 121, 78, 109, 9, 23, 27, 14, 34, 108, 0)
s = 29: (0, 21, 103, 99, 87, 10, 16, 46, 11, 40, 72, 0)
s = 30: (0, 41, 118, 85, 41, 11, 21, 27, 13, 35, 163, 0)
s = 31: (0, 52, 168, 76, 51, 17, 26, 37, 11, 23, 106, 0)
s = 32: (0, 37, 137, 68, 98, 16, 32, 16, 14, 25, 135, 0)
s = 33: (0, 46, 146, 88, 84, 9, 33, 23, 13, 21, 81, 0)
s = 34: (0, 44, 167, 56, 66, 18, 19, 22, 11, 33, 83, 0)
s = 35: (0, 29, 72, 98, 68, 10, 28, 24, 13, 40, 133, 0)
s = 36: (0, 40, 112, 97, 58, 9, 15, 25, 15, 32, 83, 0)
s = 37: (0, 29, 144, 79, 64, 13, 26, 22, 14, 32, 130, 0)
s = 38: (0, 25, 107, 57, 48, 11, 21, 21, 17, 28, 161, 0)
s = 39: (0, 31, 148, 101, 72, 17, 22, 30, 24, 41, 162, 0)
s = 40: (0, 32, 109, 103, 85, 14, 23, 33, 9, 45, 115, 0)
s = 41: (0, 38, 111, 72, 47, 15, 49, 27, 8, 21, 100, 0)
s = 42: (0, 28, 130, 63, 72, 10, 16, 35, 11, 26, 92, 0)
s = 43: (0, 36, 189, 89, 62, 25, 27, 22, 17, 19, 113, 0)
s = 44: (0, 45, 110, 69, 39, 15, 33, 27, 11, 31, 147, 0)
s = 45: (0, 42, 121, 47, 62, 22, 31, 25, 8, 26, 111, 0)
s = 46: (0, 27, 124, 53, 83, 20, 18, 33, 13, 32, 107, 0)
s = 47: (0, 35, 181, 43, 88, 10, 25, 36, 14, 43, 65, 0)
s = 48: (0, 32, 107, 96, 86, 11, 25, 36, 18, 30, 74, 0)
s = 49: (0, 35, 146, 72, 57, 10, 24, 35, 10, 30, 104, 0)
s = 50: (0, 58, 145, 87, 71, 14, 21, 31, 15, 23, 165, 0)
s = 51: (0, 27, 96, 99, 87, 13, 19, 32, 11, 24, 161, 0)
s = 52: (0, 43, 114, 62, 83, 20, 19, 28, 15, 35, 76, 0)
s = 53: (0, 39, 102, 61, 66, 13, 35, 27, 8, 26, 76, 0)
s = 54: (0, 40, 93, 82, 44, 11, 30, 20, 23, 35, 100, 0)
s = 55: (0, 40, 119, 53, 75, 15, 15, 43, 11, 17, 154, 0)
s = 56: (0, 36, 159, 51, 80, 14, 25, 34, 15, 21, 103, 0)
s = 57: (0, 23, 73, 63, 55, 10, 42, 16, 25, 30, 89, 0)
s = 58: (0, 30, 122, 39, 46, 18, 42, 37, 15, 17, 108, 0)
s = 59: (0, 22, 72, 65, 37, 13, 21, 14, 23, 27, 59, 0)
s = 60: (0, 46, 147, 55, 44, 11, 30, 17, 14, 43, 103, 0)
s = 61: (0, 40, 112, 59, 51, 19, 40, 44, 21, 22, 160, 0)
s = 62: (0, 34, 115, 121, 95, 24, 22, 18, 13, 20, 97, 0)
s = 63: (0, 35, 86, 113, 49, 13, 35, 38, 12, 18, 143, 0)
s = 64: (0, 28, 132, 59, 99, 17, 17, 29, 10, 30, 118, 0)
s = 65: (0, 25, 160, 82, 48, 17, 31, 38, 9, 23, 121, 0)
s = 66: (0, 30, 134, 66, 74, 13, 51, 15, 8, 33, 69, 0)
s = 67: (0, 28, 126, 99, 64, 11, 33, 19, 11, 33, 100, 0)
s = 68: (0, 36, 125, 98, 85, 15, 29, 29, 16, 38, 112, 0)
s = 69: (0, 60, 108, 74, 87, 11, 25, 16, 17, 32, 113, 0)
s = 70: (0, 25, 100, 73, 81, 8, 17, 14, 12, 27, 97, 0)
s = 71: (0, 30, 115, 84, 38, 10, 17, 19, 9, 31, 92, 0)
s = 72: (0, 41, 121, 98, 59, 19, 28, 27, 11, 18, 93, 0)
s = 73: (0, 21, 86, 42, 80, 18, 18, 18, 10, 35, 120, 0)
s = 74: (0, 45, 99, 78, 88, 18, 18, 29, 14, 34, 102, 0)
s = 75: (0, 27, 99, 67, 105, 8, 22, 24, 22, 35, 102, 0)
s = 76: (0, 23, 86, 60, 49, 18, 42, 36, 12, 33, 118, 0)
s = 77: (0, 40, 77, 75, 65, 17, 31, 35, 21, 26, 107, 0)
s = 78: (0, 31, 82, 98, 91, 11, 28, 31, 23, 27, 123, 0)
s = 79: (0, 28, 166, 54, 79, 15, 19, 35, 14, 24, 180, 0)
s = 80: (0, 36, 107, 54, 64, 12, 29, 23, 13, 39, 117, 0)
s = 81: (0, 30, 96, 89, 77, 16, 19, 23, 19, 29, 115, 0)
s = 82: (0, 54, 85, 68, 40, 16, 25, 41, 12, 20, 70, 0)
s = 83: (0, 28, 99, 112, 56, 8, 32, 25, 11, 31, 100, 0)
s = 84: (0, 39, 153, 43, 112, 16, 25, 21, 11, 30, 92, 0)
s = 85: (0, 50, 107, 75, 51, 9, 27, 33, 18, 42, 94, 0)
s = 86: (0, 29, 114, 129, 69, 13, 32, 32, 12, 36, 68, 0)
s = 87: (0, 53, 131, 59, 41, 8, 25, 38, 16, 34, 143, 0)
s = 88: (0, 49, 81, 69, 83, 11, 21, 19, 9, 21, 108, 0)
s = 89: (0, 27, 123, 76, 71, 21, 23, 16, 14, 32, 79, 0)
s = 90: (0, 56, 182, 77, 74, 18, 20, 19, 9, 34, 75, 0)
s = 91: (0, 27, 148, 43, 65, 18, 32, 42, 10, 29, 95, 0)
s = 92: (0, 32, 166, 88, 60, 8, 32, 25, 16, 21, 97, 0)
s = 93: (0, 41, 131, 116, 37, 10, 23, 28, 26, 32, 63, 0)
s = 94: (0, 32, 160, 44, 98, 16, 39, 23, 15, 21, 69, 0)
s = 95: (0, 39, 159, 52, 55, 10, 27, 16, 11, 39, 99, 0)
s = 96: (0, 32, 151, 60, 68, 22, 36, 28, 12, 28, 161, 0)
s = 97: (0, 35, 139, 50, 87, 9, 19, 17, 12, 26, 76, 0)
s = 98: (0, 27, 129, 73, 68, 9, 23, 40, 12, 17, 82, 0)
s = 99: (0, 36, 169, 74, 51, 15, 27, 26, 12, 40, 78, 0)
s = 100: (0, 44, 93, 41, 88, 16, 21, 21, 12, 46, 68, 0)
s = 101: (0, 26, 166, 75, 68, 17, 32, 26, 9, 23, 111, 0)
s = 102: (0, 30, 126, 59, 49, 17, 14, 26, 16, 28, 87, 0)
s = 103: (0, 26, 109, 93, 63, 10, 26, 19, 18, 25, 78, 0)
s = 104: (0, 28, 93, 100, 87, 11, 18, 28, 18, 29, 76, 0)
s = 105: (0, 38, 130, 59, 68, 20, 38, 19, 12, 25, 110, 0)
s = 106: (0, 27, 130, 95, 102, 11, 26, 17, 10, 18, 110, 0)
s = 107: (0, 26, 88, 68, 63, 14, 28, 17, 15, 26, 105, 0)
s = 108: (0, 21, 85, 80, 87, 11, 30, 23, 13, 22, 73, 0)
s = 109: (0, 44, 111, 59, 88, 14, 30, 32, 13, 17, 70, 0)
s = 110: (0, 39, 102, 70, 76, 13, 30, 21, 14, 42, 82, 0)
s = 111: (0, 69, 106, 49, 51, 13, 29, 25, 15, 26, 109, 0)
s = 112: (0, 37, 165, 44, 53, 10, 37, 22, 13, 20, 137, 0)
s = 113: (0, 27, 124, 85, 69, 13, 29, 15, 18, 22, 105, 0)
s = 114: (0, 34, 146, 101, 52, 11, 27, 21, 16, 16, 148, 0)
s = 115: (0, 38, 134, 65, 61, 12, 30, 26, 13, 31, 105, 0)
s = 116: (0, 43, 74, 76, 38, 15, 28, 21, 14, 32, 75, 0)
s = 117: (0, 52, 104, 70, 58, 12, 44, 40, 13, 21, 111, 0)
s = 118: (0, 24, 220, 61, 53, 14, 18, 22, 13, 27, 96, 0)
s = 119: (0, 31, 120, 97, 50, 18, 18, 20, 9, 19, 106, 0)
s = 120: (0, 26, 98, 60, 57, 8, 31, 27, 11, 43, 85, 0)
s = 121: (0, 42, 121, 77, 86, 16, 28, 25, 11, 35, 63, 0)
s = 122: (0, 42, 196, 71, 52, 12, 18, 20, 13, 35, 103, 0)
s = 123: (0, 29, 111, 57, 67, 15, 19, 17, 9, 22, 155, 0)
s = 124: (0, 32, 96, 83, 52, 17, 26, 20, 10, 25, 88, 0)
s = 125: (0, 61, 204, 48, 103, 13, 19, 16, 14, 23, 85, 0)
s = 126: (0, 44, 127, 68, 71, 9, 25, 28, 16, 32, 74, 0)
s = 127: (0, 35, 70, 91, 43, 21, 20, 35, 17, 29, 118, 0)
s = 128: (0, 37, 80, 88, 52, 12, 22, 19, 9, 19, 84, 0)
s = 129: (0, 25, 113, 67, 55, 17, 27, 21, 14, 34, 73, 0)
s = 130: (0, 26, 128, 44, 62, 10, 26, 31, 17, 37, 69, 0)
s = 131: (0, 40, 79, 63, 68, 12, 19, 36, 14, 20, 99, 0)
s = 132: (0, 40, 115, 104, 55, 10, 27, 26, 22, 47, 110, 0)
s = 133: (0, 23, 99, 50, 50, 13, 33, 37, 17, 16, 79, 0)
s = 134: (0, 40, 80, 62, 68, 16, 30, 20, 12, 26, 87, 0)
s = 135: (0, 37, 97, 69, 52, 14, 29, 27, 14, 30, 92, 0)
s = 136: (0, 57, 111, 43, 59, 11, 42, 33, 9, 38, 159, 0)
s = 137: (0, 45, 117, 65, 79, 15, 22, 32, 13, 39, 133, 0)
s = 138: (0, 38, 85, 67, 66, 13, 26, 42, 12, 26, 79, 0)
s = 139: (0, 20, 138, 122, 96, 14, 22, 34, 11, 35, 120, 0)
s = 140: (0, 33, 175, 69, 106, 8, 33, 23, 25, 30, 115, 0)
s = 141: (0, 40, 180, 64, 79, 9, 38, 21, 20, 22, 97, 0)
s = 142: (0, 38, 163, 47, 56, 14, 25, 27, 10, 32, 83, 0)
s = 143: (0, 30, 187, 59, 99, 13, 32, 28, 10, 39, 166, 0)
s = 144: (0, 31, 86, 67, 78, 9, 42, 32, 18, 34, 73, 0)
s = 145: (0, 34, 110, 66, 48, 17, 35, 30, 13, 37, 119, 0)
s = 146: (0, 59, 115, 82, 56, 14, 23, 19, 15, 36, 78, 0)
s = 147: (0, 37, 171, 79, 85, 10, 24, 29, 19, 30, 102, 0)
s = 148: (0, 27, 141, 105, 104, 14, 30, 18, 15, 23, 125, 0)
s = 149: (0, 37, 104, 51, 82, 13, 29, 19, 15, 22, 156, 0)
s = 150: (0, 20, 151, 74, 51, 11, 27, 21, 17, 28, 75, 0)
s = 151: (0, 28, 115, 92, 57, 9, 24, 22, 11, 21, 74, 0)
s = 152: (0, 50, 132, 64, 40, 26, 32, 21, 10, 30, 77, 0)
s = 153: (0, 21, 130, 84, 104, 15, 40, 18, 13, 28, 100, 0)
s = 154: (0, 58, 94, 62, 81, 20, 33, 20, 9, 20, 141, 0)
s = 155: (0, 42, 75, 50, 61, 14, 20, 26, 16, 21, 124, 0)
s = 156: (0, 25, 177, 92, 62, 9, 37, 37, 11, 22, 105, 0)
s = 157: (0, 50, 112, 80, 66, 11, 29, 34, 17, 34, 79, 0)
s = 158: (0, 29, 142, 120, 38, 12, 26, 21, 16, 24, 200, 0)
s = 159: (0, 42, 121, 55, 80, 17, 29, 21, 11, 22, 149, 0)
s = 160: (0, 31, 136, 61, 99, 18, 36, 32, 11, 35, 97, 0)
s = 161: (0, 40, 176, 71, 50, 14, 23, 34, 13, 30, 106, 0)
s = 162: (0, 50, 94, 105, 46, 19, 22, 23, 12, 25, 107, 0)
s = 163: (0, 24, 96, 72, 52, 9, 26, 19, 14, 19, 69, 0)
s = 164: (0, 45, 83, 67, 75, 16, 28, 21, 15, 29, 60, 0)
s = 165: (0, 36, 178, 68, 64, 16, 26, 28, 13, 36, 129, 0)
s = 166: (0, 30, 106, 86, 45, 13, 22, 44, 15, 15, 73, 0)
s = 167: (0, 38, 83, 115, 86, 9, 34, 17, 17, 37, 99, 0)
s = 168: (0, 21, 207, 69, 56, 14, 27, 30, 20, 44, 91, 0)
s = 169: (0, 23, 101, 89, 51, 17, 27, 27, 14, 24, 71, 0)
s = 170: (0, 45, 155, 75, 86, 22, 31, 21, 14, 22, 87, 0)
s = 171: (0, 49, 117, 109, 62, 11, 28, 23, 14, 26, 67, 0)
s = 172: (0, 31, 154, 128, 58, 12, 38, 36, 15, 42, 75, 0)
s = 173: (0, 38, 163, 47, 48, 10, 31, 30, 20, 29, 129, 0)
s = 174: (0, 20, 170, 83, 38, 18, 23, 26, 19, 20, 145, 0)
s = 175: (0, 30, 195, 72, 75, 13, 36, 19, 14, 29, 81, 0)
s = 176: (0, 30, 172, 38, 46, 10, 28, 25, 10, 21, 65, 0)
s = 177: (0, 27, 155, 81, 39, 16, 20, 16, 15, 16, 100, 0)
s = 178: (0, 28, 154, 65, 45, 10, 25, 26, 18, 27, 97, 0)
s = 179: (0, 45, 139, 45, 56, 13, 24, 20, 14, 25, 139, 0)
s = 180: (0, 37, 84, 71, 49, 9, 22, 25, 15, 48, 87, 0)
s = 181: (0, 50, 117, 61, 75, 13, 27, 23, 25, 23, 112, 0)
s = 182: (0, 52, 108, 49, 59, 13, 27, 17, 13, 38, 138, 0)
s = 183: (0, 28, 82, 81, 68, 10, 22, 19, 14, 40, 86, 0)
s = 184: (0, 31, 78, 79, 79, 11, 27, 28, 13, 23, 72, 0)
s = 185: (0, 32, 98, 83, 38, 18, 22, 21, 8, 24, 171, 0)
s = 186: (0, 37, 133, 65, 56, 15, 15, 22, 16, 33, 182, 0)
s = 187: (0, 35, 80, 98, 69, 8, 34, 36, 17, 19, 97, 0)
s = 188: (0, 41, 160, 70, 44, 17, 26, 20, 18, 17, 80, 0)
s = 189: (0, 29, 123, 63, 52, 14, 23, 18, 8, 22, 133, 0)
s = 190: (0, 24, 87, 69, 79, 12, 26, 27, 17, 43, 172, 0)
s = 191: (0, 28, 120, 104, 39, 21, 18, 15, 13, 28, 148, 0)
s = 192: (0, 27, 74, 62, 60, 20, 17, 23, 13, 17, 116, 0)
s = 193: (0, 41, 123, 45, 58, 18, 34, 24, 9, 20, 196, 0)
s = 194: (0, 32, 173, 100, 56, 16, 15, 24, 8, 21, 108, 0)
s = 195: (0, 28, 178, 101, 43, 16, 27, 27, 9, 31, 90, 0)
s = 196: (0, 40, 112, 64, 76, 12, 28, 24, 16, 30, 136, 0)
s = 197: (0, 27, 69, 81, 70, 18, 16, 43, 18, 38, 73, 0)
s = 198: (0, 29, 88, 84, 53, 10, 44, 40, 13, 35, 81, 0)
s = 199: (0, 20, 144, 70, 55, 11, 18, 33, 14, 37, 73, 0)
s = 200: (0, 33, 171, 60, 42, 9, 19, 20, 15, 19, 115, 0)
************************************************************************
ES/LS-VALUES:
jobnr.   ES(i)    LS(i)
------------------------------------------------------------------------
  0        0        0
  1        0       57
  2        0       54
  3        0       70
  4        3       61
  5       11       72
  6       13       74
  7        3       66
  8        7       80
  9       17       78
 10       15       70
 11       26       82
************************************************************************
BIG-M-VALUES:
M1 = 57, M2 = 361
************************************************************************
